echo
start

memory stack 500 mb heap 500 mb global 1000 mb

title "None"

geometry
N    -0.03868077    0.00868624   -0.10905900
H     0.97396606    0.00441946   -0.05549692
H    -0.35089834    0.77598271    0.47585157
H    -0.35089832   -0.84152130    0.34701765
symmetry c1
end

basis spherical
 * library "cc-pVTZ"
end

driver
 maxiter 100
end

dft
 iterations 500
 xc b3lyp
end

tddft
 nroots 4
 notriplet
end

task tddft energy
