echo
start

memory stack 500 mb heap 500 mb global 1000 mb

title "None"

geometry
N    -0.03866950    0.00834657   -0.10843990
H     0.97390926    0.00787172   -0.05738772
H    -0.34903798    0.77872334    0.47299999
H    -0.35285831   -0.84299430    0.34315819
symmetry c1
end

basis spherical
 * library "cc-pVTZ"
end

driver
 maxiter 100
end

dft
 iterations 500
 xc b3lyp
end

tddft
 nroots 4
 notriplet
end

task tddft energy
