echo
start

memory stack 500 mb heap 500 mb global 1000 mb

geometry
C    0.10618340    -3.84149030    -0.12762278
C    0.46913543    -5.16828805    -0.16010885
C    1.81029309    -5.52568831    -0.29957664
C    2.78412235    -4.53908451    -0.40599886
C    2.41565454    -3.21009831    -0.37278139
C    1.08152033    -2.85327656    -0.23436022
N    0.81600362    -1.46147095    -0.21218435
H   -0.92654546    -3.54997481    -0.02021768
H   -0.28030824    -5.94199077    -0.07792670
C    2.18183675    -6.90592130    -0.33283741
H    3.82143140    -4.81958093    -0.51374251
H    3.15307736    -2.42499917    -0.45333717
N    2.47885836    -8.01277476    -0.35948018
N   -0.38273897    -1.16274901    -0.09225405
C   -0.67943353     0.20584991    -0.06635700
C    0.26432042     1.22982630    -0.15413345
C   -0.12289688     2.54391268    -0.11622111
C   -1.48228437     2.90337432     0.00495898
C   -2.42105462     1.86303477     0.09879682
C   -2.01829390     0.54719896     0.06220232
H    1.30849052     0.97262638    -0.24584251
H    0.63854401     3.30527292    -0.16827927
N   -1.88074416     4.21375758     0.03153606
H   -3.47168202     2.08267463     0.19187833
H   -2.74678542    -0.24845149     0.13076344
C   -0.94605373     5.30316145    -0.15419932
C   -3.27359014     4.54097906     0.23860005
H   -3.65760483     4.11053352     1.16532952
H   -3.90362139     4.19143136    -0.58396050
H   -3.37742178     5.61974482     0.30589201
C   -0.29551388     5.76954123     1.14399997
H   -1.48130290     6.13798924    -0.60988014
H   -0.16788172     5.02211497    -0.86133000
H   -1.06481407     6.09564622     1.85130963
O    0.66221760     6.78147514     0.91268239
H    0.23838934     4.94168554     1.60759104
H    0.21491761     7.59916436     0.68361630
symmetry c1
end

basis spherical
 * library "cc-pVTZ"
end

driver
 maxiter 100
end

dft
 iterations 500
 xc b3lyp
end

tddft
 nroots 4
 notriplet
end

task tddft energy
