echo
start

geometry 
C         -1.51508        2.92777        0.00000
C         -2.68030        2.15344        0.00000
C         -2.59233        0.75717        0.00000
C         -1.33913        0.13522        0.00000
C         -0.17391        0.90954        0.00000
C         -0.26188        2.30582        0.00000
H         -3.64981        2.63460       -0.00000
H         -3.49377        0.15813        0.00000
H         -1.27107       -0.94498        0.00000
H          0.79560        0.42839        0.00000
H          0.63957        2.90486        0.00000
symmetry c1
end

basis spherical
 * library "aug-cc-pvtz"
end

dft
 direct
 mult 2
 iterations 500
 xc b3lyp
end
task dft optimize
