echo
start

geometry 
C    -0.08714006     1.38304372     0.00000008
C    -1.26702264     0.68586055     0.00000001
C    -1.16700412    -0.70996889     0.00000001
C     0.08324816    -1.32124953     0.00000007
C     1.24688828    -0.55787799     0.00000002
C     1.17091838     0.83946690     0.00000008
H    -2.23155837     1.17564063    -0.00000007
H    -2.06715194    -1.31129762    -0.00000006
H     0.15125622    -2.40063469     0.00000003
H     2.21539348    -1.04146876    -0.00000010
H     2.06635187     1.44643689    -0.00000007
symmetry c1
end

basis spherical
 * library "aug-cc-pvtz"
end

dft
 direct
 mult 2
 iterations 500
 xc b3lyp
end
task dft frequencies
