echo
start

title "None"

geometry
C    -0.08763632    1.38829358    0.00000005
C    -1.26710267    0.69051973   -0.00000002
C    -1.16709154   -0.70422530   -0.00000002
C     0.08252775   -1.31601343    0.00000004
C     1.24685930   -0.55306626   -0.00000001
C     1.17076052    0.84535517    0.00000005
H    -2.23257696    1.17835820   -0.00000010
H    -2.06797452   -1.30439288   -0.00000009
H     0.14835548   -2.39553596    0.00000000
H     2.21478088   -1.03790130   -0.00000013
H     2.06501895    1.45413388   -0.00000010
symmetry c1
end

basis spherical
 * library "aug-cc-pvtz"
end

dft
 direct
 mult 2
 iterations 500
 xc b3lyp
end

tddft
 nroots 40
 notriplet
 algorithm 1
end
task tddft energy
