echo
start

title "None"

geometry
C    -0.08939255    1.38818311    0.00000005
C    -1.26619211    0.69176935   -0.00000002
C    -1.16845766   -0.70431267   -0.00000002
C     0.08485133   -1.31586710    0.00000004
C     1.24549329   -0.55315124   -0.00000001
C     1.17182115    0.84423004    0.00000005
H    -2.23180126    1.17937359   -0.00000010
H    -2.06754736   -1.30738486   -0.00000009
H     0.14851160   -2.39552619    0.00000000
H     2.21482967   -1.03487864   -0.00000013
H     2.06591656    1.45322387   -0.00000010
symmetry c1
end

basis spherical
 * library "aug-cc-pvtz"
end

dft
 direct
 mult 2
 iterations 500
 xc b3lyp
end

tddft
 nroots 40
 notriplet
 algorithm 1
end
task tddft energy
