echo
start

title "None"

geometry
C    -0.08827910    1.38825267    0.00000005
C    -1.26697460    0.69092805   -0.00000002
C    -1.16721446   -0.70410824   -0.00000002
C     0.08197864   -1.31604845    0.00000004
C     1.24675306   -0.55319761   -0.00000001
C     1.17093795    0.84496755    0.00000005
H    -2.23120553    1.18117566   -0.00000010
H    -2.06593908   -1.30742175   -0.00000009
H     0.15487413   -2.39512571   -0.00000000
H     2.21641937   -1.03464450   -0.00000013
H     2.06673613    1.45150658   -0.00000010
symmetry c1
end

basis spherical
 * library "aug-cc-pvtz"
end

dft
 direct
 mult 2
 iterations 500
 xc b3lyp
end

tddft
 nroots 40
 notriplet
 algorithm 1
end
task tddft energy
