echo
start

title "None"

geometry
C    -0.08743313    1.38769343    0.00000005
C    -1.26672445    0.69189569   -0.00000002
C    -1.16780388   -0.70461944   -0.00000002
C     0.08293538   -1.31628324    0.00000004
C     1.24700847   -0.55246957   -0.00000001
C     1.16986295    0.84541638    0.00000005
H    -2.23292845    1.17831348   -0.00000010
H    -2.06663082   -1.30802932   -0.00000009
H     0.15094429   -2.39575197   -0.00000000
H     2.21446228   -1.03829481   -0.00000013
H     2.06737300    1.44926058   -0.00000010
symmetry c1
end

basis spherical
 * library "aug-cc-pvtz"
end

dft
 direct
 mult 2
 iterations 500
 xc b3lyp
end

tddft
 nroots 40
 notriplet
 algorithm 1
end
task tddft energy
