echo
start

title "None"

geometry
C    -0.08730816    1.38831460    0.00000005
C    -1.26760697    0.69172211   -0.00000002
C    -1.16758106   -0.70519174   -0.00000002
C     0.08330421   -1.31596489    0.00000004
C     1.24625290   -0.55216898   -0.00000001
C     1.17041188    0.84409937    0.00000005
H    -2.23120414    1.18344380   -0.00000010
H    -2.06699372   -1.30768162   -0.00000009
H     0.15349260   -2.39521268   -0.00000000
H     2.21534172   -1.03451548   -0.00000013
H     2.06702043    1.44926064   -0.00000010
symmetry c1
end

basis spherical
 * library "aug-cc-pvtz"
end

dft
 direct
 mult 2
 iterations 500
 xc b3lyp
end

tddft
 nroots 40
 notriplet
 algorithm 1
end
task tddft energy
