echo
start

title "None"

geometry
C    -0.08755853    1.38830088    0.00000005
C    -1.26726859    0.69111320   -0.00000002
C    -1.16713436   -0.70487946   -0.00000002
C     0.08250128   -1.31601396    0.00000004
C     1.24672112   -0.55244223   -0.00000001
C     1.17066138    0.84476120    0.00000005
H    -2.23140117    1.18168847   -0.00000010
H    -2.06603751   -1.30806076   -0.00000009
H     0.14708397   -2.39561487   -0.00000000
H     2.21615261   -1.03419046   -0.00000013
H     2.06650704    1.45112357   -0.00000010
symmetry c1
end

basis spherical
 * library "aug-cc-pvtz"
end

dft
 direct
 mult 2
 iterations 500
 xc b3lyp
end

tddft
 nroots 40
 notriplet
 algorithm 1
end
task tddft energy
