echo
start

title "None"

geometry
C    -0.08867996    1.38822799    0.00000005
C    -1.26705177    0.69140960   -0.00000002
C    -1.16676567   -0.70528027   -0.00000002
C     0.08249684   -1.31601557    0.00000004
C     1.24705038   -0.55197892   -0.00000001
C     1.17092313    0.84447897    0.00000005
H    -2.23089806    1.18255861   -0.00000010
H    -2.06894818   -1.30351816   -0.00000009
H     0.15041065   -2.39540667   -0.00000000
H     2.21392486   -1.03889149   -0.00000013
H     2.06721200    1.45017797   -0.00000010
symmetry c1
end

basis spherical
 * library "aug-cc-pvtz"
end

dft
 direct
 mult 2
 iterations 500
 xc b3lyp
end

tddft
 nroots 40
 notriplet
 algorithm 1
end
task tddft energy
