echo
start

title "None"

geometry
C    -0.08761979    1.39064429    0.00000005
C    -1.26615524    0.69126916   -0.00000002
C    -1.16612587   -0.70481866   -0.00000002
C     0.08303613   -1.31789631    0.00000004
C     1.24536945   -0.55287906   -0.00000001
C     1.16937730    0.84472352    0.00000005
H    -2.23157765    1.17928534   -0.00000010
H    -2.06725536   -1.30466008   -0.00000009
H     0.15104405   -2.39728411   -0.00000000
H     2.21466190   -1.03487072   -0.00000013
H     2.06591191    1.45005489   -0.00000010
symmetry c1
end

basis spherical
 * library "aug-cc-pvtz"
end

dft
 direct
 mult 2
 iterations 500
 xc b3lyp
end

tddft
 nroots 40
 notriplet
 algorithm 1
end
task tddft energy
