echo
start

title "None"

geometry
C    -0.08734154    1.38622977    0.00000005
C    -1.26805899    0.69183854   -0.00000002
C    -1.16604019   -0.70372924   -0.00000002
C     0.08301747   -1.31759993    0.00000004
C     1.24514736   -0.55180870   -0.00000001
C     1.17119486    0.84552776    0.00000005
H    -2.23228971    1.18215921   -0.00000010
H    -2.06676107   -1.30420911   -0.00000009
H     0.15102458   -2.39697204   -0.00000000
H     2.21411449   -1.03448513   -0.00000013
H     2.06625799    1.45299541   -0.00000010
symmetry c1
end

basis spherical
 * library "aug-cc-pvtz"
end

dft
 direct
 mult 2
 iterations 500
 xc b3lyp
end

tddft
 nroots 40
 notriplet
 algorithm 1
end
task tddft energy
