echo
start

title "None"

geometry
C    -0.08752094    1.38907619    0.00000005
C    -1.26831528    0.69190746   -0.00000002
C    -1.16850554   -0.70527771   -0.00000002
C     0.08302289   -1.31768804    0.00000004
C     1.24778778   -0.55303600   -0.00000001
C     1.17144045    0.84562858    0.00000005
H    -2.23236245    1.18285584   -0.00000010
H    -2.06929109   -1.30586415   -0.00000009
H     0.15103835   -2.39720277   -0.00000000
H     2.21683236   -1.03581066   -0.00000013
H     2.06624185    1.45369740   -0.00000010
symmetry c1
end

basis spherical
 * library "aug-cc-pvtz"
end

dft
 direct
 mult 2
 iterations 500
 xc b3lyp
end

tddft
 nroots 40
 notriplet
 algorithm 1
end
task tddft energy
