echo
start

title "None"

geometry
C    -0.08738595    1.38830730    0.00000005
C    -1.26744105    0.69112864   -0.00000002
C    -1.16753824   -0.70453758   -0.00000002
C     0.08333068   -1.31596436    0.00000004
C     1.24639108   -0.55279301   -0.00000001
C     1.17051102    0.84469334    0.00000005
H    -2.23237993    1.18011353   -0.00000010
H    -2.06893073   -1.30401374   -0.00000009
H     0.15476411   -2.39513377    0.00000000
H     2.21396999   -1.03822632   -0.00000013
H     2.06553234    1.45227095   -0.00000010
symmetry c1
end

basis spherical
 * library "aug-cc-pvtz"
end

dft
 direct
 mult 2
 iterations 500
 xc b3lyp
end

tddft
 nroots 40
 notriplet
 algorithm 1
end
task tddft energy
