echo
start

title "None"

geometry
C    -0.08750929    1.38889179    0.00000005
C    -1.26826083    0.69111029   -0.00000002
C    -1.16691739   -0.70480860   -0.00000002
C     0.08290535   -1.31582163    0.00000004
C     1.24615313   -0.55276951   -0.00000001
C     1.17148646    0.84483067    0.00000005
H    -2.23383720    1.17889221   -0.00000010
H    -2.06601720   -1.30771451   -0.00000009
H     0.15091194   -2.39518811   -0.00000000
H     2.21381631   -1.03805695   -0.00000013
H     2.06820302    1.44994907   -0.00000010
symmetry c1
end

basis spherical
 * library "aug-cc-pvtz"
end

dft
 direct
 mult 2
 iterations 500
 xc b3lyp
end

tddft
 nroots 40
 notriplet
 algorithm 1
end
task tddft energy
