echo
start

title "None"

geometry
C    -0.08751135    1.38891475    0.00000005
C    -1.26798519    0.69034615   -0.00000002
C    -1.16686872   -0.70479760   -0.00000002
C     0.08289658   -1.31569508    0.00000004
C     1.24610373   -0.55276567   -0.00000001
C     1.17130945    0.84403816    0.00000005
H    -2.23085265    1.18348852   -0.00000010
H    -2.06833742   -1.30404518   -0.00000009
H     0.15090379   -2.39499667    0.00000000
H     2.21566032   -1.03412197   -0.00000013
H     2.06466638    1.45413394   -0.00000010
symmetry c1
end

basis spherical
 * library "aug-cc-pvtz"
end

dft
 direct
 mult 2
 iterations 500
 xc b3lyp
end

tddft
 nroots 40
 notriplet
 algorithm 1
end
task tddft energy
