echo
start

title "None"

geometry
C    -0.08666039    1.38835547    0.00000005
C    -1.26603885    0.68996364   -0.00000002
C    -1.16853838   -0.70601349   -0.00000002
C     0.08207797   -1.31604215    0.00000004
C     1.24519975   -0.55147389   -0.00000001
C     1.17174616    0.84604056    0.00000005
H    -2.23010266    1.18072031   -0.00000010
H    -2.06917570   -1.30658094   -0.00000009
H     0.15211646   -2.39529933   -0.00000000
H     2.21331499   -1.03588094   -0.00000013
H     2.06777056    1.45210090   -0.00000010
symmetry c1
end

basis spherical
 * library "aug-cc-pvtz"
end

dft
 direct
 mult 2
 iterations 500
 xc b3lyp
end

tddft
 nroots 40
 notriplet
 algorithm 1
end
task tddft energy
