echo
start

title "None"

geometry
C    -0.08758029    1.38829727    0.00000005
C    -1.26756832    0.69031333   -0.00000002
C    -1.16748669   -0.70418800   -0.00000002
C     0.08357889   -1.31594733    0.00000004
C     1.24647230   -0.55315297   -0.00000001
C     1.17027303    0.84550164    0.00000005
H    -2.23017570    1.18387633   -0.00000010
H    -2.06772781   -1.30533845   -0.00000009
H     0.14998467   -2.39543350    0.00000000
H     2.21490757   -1.03693166   -0.00000013
H     2.06809443    1.44896065   -0.00000010
symmetry c1
end

basis spherical
 * library "aug-cc-pvtz"
end

dft
 direct
 mult 2
 iterations 500
 xc b3lyp
end

tddft
 nroots 40
 notriplet
 algorithm 1
end
task tddft energy
