echo
start

title "None"

geometry
C    -0.08747315    1.38836814    0.00000005
C    -1.26725331    0.69135701   -0.00000002
C    -1.16711203   -0.70495331   -0.00000002
C     0.08292860   -1.31595210    0.00000004
C     1.24635195   -0.55290191   -0.00000001
C     1.17045008    0.84494688    0.00000005
H    -2.23079819    1.18311316   -0.00000010
H    -2.06595897   -1.30822259   -0.00000009
H     0.15105879   -2.39532641    0.00000000
H     2.21374144   -1.03871780   -0.00000013
H     2.06462014    1.45380076   -0.00000010
symmetry c1
end

basis spherical
 * library "aug-cc-pvtz"
end

dft
 direct
 mult 2
 iterations 500
 xc b3lyp
end

tddft
 nroots 40
 notriplet
 algorithm 1
end
task tddft energy
