echo
start

title "None"

geometry
C    -0.08732469    1.38596389    0.00000005
C    -1.26855440    0.69097268   -0.00000002
C    -1.16854673   -0.70459838   -0.00000002
C     0.08279583   -1.31408201    0.00000004
C     1.24774275   -0.55235618   -0.00000001
C     1.17179510    0.84473102    0.00000005
H    -2.23220345    1.18251666   -0.00000010
H    -2.06771288   -1.30741442   -0.00000009
H     0.15080403   -2.39346453    0.00000000
H     2.21546070   -1.03754606   -0.00000013
H     2.06612747    1.45333963   -0.00000010
symmetry c1
end

basis spherical
 * library "aug-cc-pvtz"
end

dft
 direct
 mult 2
 iterations 500
 xc b3lyp
end

tddft
 nroots 40
 notriplet
 algorithm 1
end
task tddft energy
