echo
start

title "None"

geometry
C    -0.08555193    1.38842507    0.00000005
C    -1.26851753    0.69047249   -0.00000002
C    -1.16621494   -0.70510437   -0.00000002
C     0.08098063   -1.31611122    0.00000004
C     1.24761891   -0.55208400   -0.00000001
C     1.16935125    0.84522450    0.00000005
H    -2.23197984    1.18242841   -0.00000010
H    -2.06742088   -1.30468964   -0.00000009
H     0.15333648   -2.39522245   -0.00000000
H     2.21529293   -1.03753814   -0.00000013
H     2.06612282    1.45017065   -0.00000010
symmetry c1
end

basis spherical
 * library "aug-cc-pvtz"
end

dft
 direct
 mult 2
 iterations 500
 xc b3lyp
end

tddft
 nroots 40
 notriplet
 algorithm 1
end
task tddft energy
