echo
start

title "None"

geometry
C    -0.08744508    1.38787631    0.00000005
C    -1.26730004    0.69218245   -0.00000002
C    -1.16662049   -0.70620771   -0.00000002
C     0.08285514   -1.31502573    0.00000004
C     1.24603415   -0.55419471   -0.00000001
C     1.17039852    0.84577354    0.00000005
H    -2.23263824    1.18052867   -0.00000010
H    -2.06926774   -1.30378230   -0.00000009
H     0.15085591   -2.39429045   -0.00000000
H     2.21654792   -1.03374724   -0.00000013
H     2.06680801    1.45142169   -0.00000010
symmetry c1
end

basis spherical
 * library "aug-cc-pvtz"
end

dft
 direct
 mult 2
 iterations 500
 xc b3lyp
end

tddft
 nroots 40
 notriplet
 algorithm 1
end
task tddft energy
