echo
start

title "None"

geometry
C    -0.08760294    1.39037841    0.00000005
C    -1.26665065    0.69040330   -0.00000002
C    -1.16863241   -0.70568780   -0.00000002
C     0.08281449   -1.31437839    0.00000004
C     1.24796484   -0.55342654   -0.00000001
C     1.16997754    0.84392678    0.00000005
H    -2.23149139    1.17964279   -0.00000010
H    -2.06820717   -1.30786539   -0.00000009
H     0.15082350   -2.39377660    0.00000000
H     2.21600811   -1.03793165   -0.00000013
H     2.06578139    1.45039911   -0.00000010
symmetry c1
end

basis spherical
 * library "aug-cc-pvtz"
end

dft
 direct
 mult 2
 iterations 500
 xc b3lyp
end

tddft
 nroots 40
 notriplet
 algorithm 1
end
task tddft energy
