echo
start

title "None"

geometry
C    -0.08747133    1.38824004    0.00000005
C    -1.26745633    0.69088483   -0.00000002
C    -1.16756057   -0.70446373   -0.00000002
C     0.08290336   -1.31602622    0.00000004
C     1.24676025   -0.55233333   -0.00000001
C     1.17072232    0.84450766    0.00000005
H    -2.23298291    1.17868884   -0.00000010
H    -2.06900927   -1.30385191   -0.00000009
H     0.15078929   -2.39542223   -0.00000000
H     2.21638116   -1.03369898   -0.00000013
H     2.06741924    1.44959376   -0.00000010
symmetry c1
end

basis spherical
 * library "aug-cc-pvtz"
end

dft
 direct
 mult 2
 iterations 500
 xc b3lyp
end

tddft
 nroots 40
 notriplet
 algorithm 1
end
task tddft energy
