echo
start

title "None"

geometry
C    -0.08626452    1.38838019    0.00000005
C    -1.26765787    0.69083224   -0.00000002
C    -1.16790693   -0.70413677   -0.00000002
C     0.08333512   -1.31596275    0.00000004
C     1.24606182   -0.55325632   -0.00000001
C     1.17024927    0.84497557    0.00000005
H    -2.23288304    1.17924339   -0.00000010
H    -2.06602006   -1.30855634   -0.00000009
H     0.15143743   -2.39534197    0.00000000
H     2.21619774   -1.03352529   -0.00000013
H     2.06482738    1.45321655   -0.00000010
symmetry c1
end

basis spherical
 * library "aug-cc-pvtz"
end

dft
 direct
 mult 2
 iterations 500
 xc b3lyp
end

tddft
 nroots 40
 notriplet
 algorithm 1
end
task tddft energy
