echo
start

title "None"

geometry
C    -0.08736419    1.38831091    0.00000005
C    -1.26714132    0.69192851   -0.00000002
C    -1.16718591   -0.70522904   -0.00000002
C     0.08225307   -1.31603099    0.00000004
C     1.24663990   -0.55208227   -0.00000001
C     1.17089937    0.84395290    0.00000005
H    -2.23360540    1.17792567   -0.00000010
H    -2.06724043   -1.30673605   -0.00000009
H     0.15186341   -2.39531514   -0.00000000
H     2.21521503   -1.03548512   -0.00000013
H     2.06394495    1.45443387   -0.00000010
symmetry c1
end

basis spherical
 * library "aug-cc-pvtz"
end

dft
 direct
 mult 2
 iterations 500
 xc b3lyp
end

tddft
 nroots 40
 notriplet
 algorithm 1
end
task tddft energy
