echo
start

title "None"

geometry
C    -0.08747224    1.38830409    0.00000005
C    -1.26735482    0.69112092    0.00044150
C    -1.16733630   -0.70470852   -0.00054024
C     0.08291598   -1.31598916   -0.00000021
C     1.24655610   -0.55261762    0.00054034
C     1.17058620    0.84472727   -0.00044129
H    -2.23189055    1.18090100   -0.00225925
H    -2.06748412   -1.30603725    0.00290035
H     0.15092404   -2.39537432    0.00000131
H     2.21506130   -1.03620839   -0.00290088
H     2.06601969    1.45169726    0.00225792
symmetry c1
end

basis spherical
 * library "aug-cc-pvtz"
end

dft
 direct
 mult 2
 iterations 500
 xc b3lyp
end

tddft
 nroots 40
 notriplet
 algorithm 1
end
task tddft energy
