echo
start

title "None"

geometry
C    -0.08742354    1.38753199    0.00000005
C    -1.26639436    0.69033438   -0.00000002
C    -1.16616706   -0.70413933   -0.00000002
C     0.08280907   -1.31429028    0.00000004
C     1.24532442   -0.55219924   -0.00000001
C     1.16973195    0.84382596    0.00000005
H    -2.23141865    1.17894616   -0.00000010
H    -2.06567715   -1.30621035   -0.00000009
H     0.15080973   -2.39354587    0.00000000
H     2.21329024   -1.03660612   -0.00000013
H     2.06579753    1.44969712   -0.00000010
symmetry c1
end

basis spherical
 * library "aug-cc-pvtz"
end

dft
 direct
 mult 2
 iterations 500
 xc b3lyp
end

tddft
 nroots 40
 notriplet
 algorithm 1
end
task tddft energy
