echo
start

title "None"

geometry
C    -0.08743519    1.38771639    0.00000005
C    -1.26644881    0.69113155   -0.00000002
C    -1.16775521   -0.70460844   -0.00000002
C     0.08292661   -1.31615669    0.00000004
C     1.24695907   -0.55246573   -0.00000001
C     1.16968594    0.84462387    0.00000005
H    -2.22994390    1.18290979   -0.00000010
H    -2.06895104   -1.30435999   -0.00000009
H     0.15093614   -2.39556053    0.00000000
H     2.21630629   -1.03435983   -0.00000013
H     2.06383636    1.45344545   -0.00000010
symmetry c1
end

basis spherical
 * library "aug-cc-pvtz"
end

dft
 direct
 mult 2
 iterations 500
 xc b3lyp
end

tddft
 nroots 40
 notriplet
 algorithm 1
end
task tddft energy
