echo
start

title "None"

geometry
C    -0.08747224    1.38830409    0.00000011
C    -1.26735482    0.69112092    0.00045052
C    -1.16733630   -0.70470852    0.00032214
C     0.08291598   -1.31598916    0.00000010
C     1.24655610   -0.55261762   -0.00032217
C     1.17058620    0.84472727   -0.00045061
H    -2.23189055    1.18090100   -0.00286950
H    -2.06748412   -1.30603725   -0.00233693
H     0.15092404   -2.39537432   -0.00000018
H     2.21506130   -1.03620839    0.00233612
H     2.06601969    1.45169726    0.00286989
symmetry c1
end

basis spherical
 * library "aug-cc-pvtz"
end

dft
 direct
 mult 2
 iterations 500
 xc b3lyp
end

tddft
 nroots 40
 notriplet
 algorithm 1
end
task tddft energy
