echo
start

title "None"

geometry
C    -0.08666538    1.38835551    0.00000005
C    -1.26773504    0.69131379   -0.00000002
C    -1.16745814   -0.70530880   -0.00000002
C     0.08385332   -1.31592987    0.00000004
C     1.24635914   -0.55203763   -0.00000001
C     1.17023445    0.84448699    0.00000005
H    -2.23257557    1.18062634   -0.00000010
H    -2.06902916   -1.30465275   -0.00000009
H     0.14697395   -2.39562293    0.00000000
H     2.21370323   -1.03777228   -0.00000013
H     2.06530325    1.45188794   -0.00000010
symmetry c1
end

basis spherical
 * library "aug-cc-pvtz"
end

dft
 direct
 mult 2
 iterations 500
 xc b3lyp
end

tddft
 nroots 40
 notriplet
 algorithm 1
end
task tddft energy
