echo
start

title "None"

geometry
C    -0.08749940    1.38873187    0.00000005
C    -1.26740960    0.69005939   -0.00000002
C    -1.16805211   -0.70320933   -0.00000002
C     0.08297682   -1.31695259    0.00000004
C     1.24707805   -0.55104053   -0.00000001
C     1.17077388    0.84368100    0.00000005
H    -2.23114286    1.18127333   -0.00000010
H    -2.06570050   -1.30829220   -0.00000009
H     0.15099217   -2.39645819    0.00000000
H     2.21357468   -1.03866954   -0.00000013
H     2.06523137    1.45197283   -0.00000010
symmetry c1
end

basis spherical
 * library "aug-cc-pvtz"
end

dft
 direct
 mult 2
 iterations 500
 xc b3lyp
end

tddft
 nroots 40
 notriplet
 algorithm 1
end
task tddft energy
