echo
start

title "None"

geometry
C    -0.08828409    1.38825271    0.00000005
C    -1.26867079    0.69227820   -0.00000002
C    -1.16613422   -0.70340355   -0.00000002
C     0.08375399   -1.31593617    0.00000004
C     1.24791245   -0.55376135   -0.00000001
C     1.16942624    0.84341398    0.00000005
H    -2.23367844    1.18108169   -0.00000010
H    -2.06579254   -1.30549356   -0.00000009
H     0.14973162   -2.39544931    0.00000000
H     2.21680761   -1.03653584   -0.00000013
H     2.06426882    1.45129362   -0.00000010
symmetry c1
end

basis spherical
 * library "aug-cc-pvtz"
end

dft
 direct
 mult 2
 iterations 500
 xc b3lyp
end

tddft
 nroots 40
 notriplet
 algorithm 1
end
task tddft energy
